num_offers = 25;
num_halls = 10;
start=[40,2,20,8,17,29,27,94,7,3,63,23,28,1,31,82,82,19,31,47,50,23,60,52,34];
end=[71,54,73,72,85,88,76,99,31,53,74,90,92,74,69,99,93,49,72,85,88,93,80,76,57];
price=[433,2995,5044,3926,1519,797,2167,450,955,1543,172,3725,4297,5929,3134,790,695,2758,2040,1934,1496,3539,2084,2017,1642];
requirement=[650,290,338,826,496,680,486,872,618,693,383,733,475,831,769,415,321,868,501,343,925,306,582,770,209];
capacity=[610,428,900,520,523,980,738,648,396,932];
